C101

VEHICLE
NUMBER     CAPACITY
  25         200

CUSTOMER
CUST NO.  XCOORD.   YCOORD.    DEMAND   READY TIME  DUE DATE   SERVICE   TIME

0           40         50        0        0        240        0
1           15         80        10        91        121        10
2           72         35        30        116        146        10
3           10         40        30        119        149        10
4           63         65        8        30        60        10
5           6         68        30        89        119        10
6           30         25        23        96        126        10
7           2         60        5        77        107        10
8           12         24        13        90        120        10
9           38         15        10        148        178        10
10           42         5        10        151        181        10
11           2         40        20        58        88        10
12           8         56        27        90        120        10
13           44         5        20        87        117        10
14           90         35        10        67        97        10
15           65         82        10        124        154        10
16           20         80        40        141        171        10
17           88         35        20        61        91        10
18           40         60        21        144        174        10
19           95         35        20        62        92        10
20           65         35        3        52        82        10